&CONTROL
   calculation = 'relax'
   pseudo_dir = './pseudos'
   tprnfor = .TRUE.
   forc_conv_thr = 0.0005
   restart_mode = 'from_scratch'
   nstep = 100
   outdir = './'
/
&SYSTEM
   ibrav = 1
   ecutrho = 480
   ecutwfc = 60
   smearing = "mv"
   degauss = 0.01
   nat = 19
   ntyp = 3
   tot_charge = 1
   celldm(1) = 29.7009029932
/
&ELECTRONS
   electron_maxstep = 200
   conv_thr = 5.d-9
/
&IONS
   ion_dynamics = 'bfgs'
/
&CELL
/
K_POINTS (automatic)
1 1 1 0 0 0
ATOMIC_SPECIES
H   1.008  H.pbe-rrkjus_psl.1.0.0.UPF
C  12.010  C.pbe-n-kjpaw_psl.1.0.0.UPF
N  14.006  N.pbe-n-radius_5.UPF
ATOMIC_POSITIONS (bohr)
C 16.65412797 11.03291892 19.78377138
C 16.85185404 14.46554721 16.59230616
C 17.41136767 11.85721446 17.52341972
C 14.56096832 17.02875199 13.31461736
C 12.88143780 16.92419825 11.04478558
C 10.54394620 17.87100999 11.04329381
H 15.54892001 12.23995822 21.04162257
H 16.09175257 13.41161182 12.85712185
H 15.83970789 15.57090998 18.01949525
H 16.36695764 17.95388979 12.88956056
H 17.12271977 9.14326090 20.45642465
H 18.51969832 10.63980502 16.27547484
H 18.58220546 15.47578797 16.05950927
H 13.64560378 18.02688542 14.87978171
H 13.66974791 16.06193711 9.34071957
H 13.55642359 13.47230271 14.67698657
H 9.74458397 18.73662221 12.73819966
H 9.36239719 17.82793539 9.35647041
N 15.20417156 14.41803673 14.26501751
