&CONTROL
   calculation = 'relax'
   pseudo_dir = './pseudos'
   tprnfor = .TRUE.
   forc_conv_thr = 0.0005
   restart_mode = 'from_scratch'
   nstep = 100
   outdir = './'
/
&SYSTEM
   ibrav = 1
   ecutrho = 480
   ecutwfc = 60
   smearing = "mv"
   degauss = 0.01
   nat = 18
   ntyp = 3
   tot_charge = 1
   celldm(1) = 30.2908897515
/
&ELECTRONS
   electron_maxstep = 200
   conv_thr = 5.d-9
/
&IONS
   ion_dynamics = 'bfgs'
/
&CELL
/
K_POINTS (automatic)
1 1 1 0 0 0
ATOMIC_SPECIES
H   1.008  H.pbe-rrkjus_psl.1.0.0.UPF
C  12.010  C.pbe-n-kjpaw_psl.1.0.0.UPF
O  15.999  O.pbe-n-kjpaw_psl.0.1.UPF
ATOMIC_POSITIONS (bohr)
C 16.12698841 17.20787752 15.45880424
C 16.42176209 12.53864826 15.06801752
C 19.18468396 12.36631245 15.40887911
C 14.95722262 14.83646761 15.09449474
C 14.67905130 19.39732281 15.47379073
C 12.30639135 14.71792500 14.74808321
C 12.06395200 19.25446279 15.12752962
C 10.88151525 16.91292359 14.76517792
H 15.58678364 21.22196980 15.75477227
H 16.23389081 8.93108005 14.70990965
H 18.15952721 17.34581691 15.72807902
H 19.56875373 11.12622803 17.03381142
H 19.99034639 11.42080396 13.74102412
H 20.11498802 14.18196522 15.69091330
H 11.39464442 12.89556495 14.46955722
H 10.93476348 20.97694656 15.13958234
H 8.84318464 16.81730940 14.49742259
O 15.16954521 10.46838287 14.70814364
