&CONTROL
   calculation = 'relax'
   pseudo_dir = './pseudos'
   tprnfor = .TRUE.
   forc_conv_thr = 0.0005
   restart_mode = 'from_scratch'
   nstep = 100
   outdir = './'
/
&SYSTEM
   ibrav = 1
   ecutrho = 480
   ecutwfc = 60
   smearing = "mv"
   degauss = 0.01
   nat = 17
   ntyp = 3
   tot_charge = 1
   celldm(1) = 27.8247383897
/
&ELECTRONS
   electron_maxstep = 200
   conv_thr = 5.d-9
/
&IONS
   ion_dynamics = 'bfgs'
/
&CELL
/
K_POINTS (automatic)
1 1 1 0 0 0
ATOMIC_SPECIES
H   1.008  H.pbe-rrkjus_psl.1.0.0.UPF
C  12.010  C.pbe-n-kjpaw_psl.1.0.0.UPF
N  14.006  N.pbe-n-radius_5.UPF
ATOMIC_POSITIONS (bohr)
C 15.13904815 13.48363864 16.17060562
C 16.13163165 10.86902924 16.79474620
C 12.84496363 16.05655507 12.88704130
C 11.59985311 15.95180207 10.30831877
H 14.43863294 17.37897248 12.91408861
H 14.60056507 9.47047677 16.86713526
H 15.14823005 12.93244710 12.28124408
H 16.66354982 14.88362311 16.09847682
H 17.03826546 10.91963928 18.65768456
H 17.54637769 10.24163778 15.41267623
H 13.72698682 14.11478864 17.54786100
H 12.94950446 15.39784782 8.83294617
H 12.42829442 12.22040639 13.62342831
H 11.50186896 16.61006911 14.36311542
H 10.87286746 17.83379416 9.83419954
H 10.00377159 14.62615329 10.28677055
N 13.87586879 13.51939346 13.62993411
