&CONTROL
   calculation = 'relax'
   pseudo_dir = './pseudos'
   tprnfor = .TRUE.
   forc_conv_thr = 0.0005
   restart_mode = 'from_scratch'
   nstep = 100
   outdir = './'
/
&SYSTEM
   ibrav = 1
   ecutrho = 480
   ecutwfc = 60
   smearing = "mv"
   degauss = 0.01
   nat = 23
   ntyp = 3
   tot_charge = 1
   celldm(1) = 28.1212699591
/
&ELECTRONS
   electron_maxstep = 200
   conv_thr = 5.d-9
/
&IONS
   ion_dynamics = 'bfgs'
/
&CELL
/
K_POINTS (automatic)
1 1 1 0 0 0
ATOMIC_SPECIES
H   1.008  H.pbe-rrkjus_psl.1.0.0.UPF
C  12.010  C.pbe-n-kjpaw_psl.1.0.0.UPF
N  14.006  N.pbe-n-radius_5.UPF
ATOMIC_POSITIONS (bohr)
C 14.37487125 16.74110566 10.53895943
C 15.42261819 16.56756472 17.67662523
C 16.01243194 14.97184772 12.08723404
C 13.46208304 15.14239267 16.14471889
C 12.67182030 11.71361602 12.97794911
C 12.08591806 9.49247127 14.69631115
H 14.44565678 17.53230768 19.22998350
H 15.59312703 17.61802238 9.10871354
H 15.95851305 12.39147469 14.95817863
H 16.41519201 18.01178316 16.56912793
H 16.81869546 15.27879390 18.51058548
H 16.89917836 13.53360035 10.88871328
H 17.51822483 16.00381394 13.06249986
H 13.79312565 8.39069897 15.11566896
H 13.55256134 18.27006508 11.67211293
H 13.47281108 11.04898181 11.18732372
H 12.85371455 15.74938207 9.53868559
H 12.37597757 13.87278066 17.36671246
H 12.13225920 16.42140163 15.20603705
H 11.19557084 10.06289784 16.47941049
H 10.97880658 12.83259739 12.56737637
H 10.75608265 8.24721094 13.70650940
N 14.60536665 13.49978831 14.10516750
