&CONTROL
   calculation = 'relax'
   pseudo_dir = './pseudos'
   tprnfor = .TRUE.
   forc_conv_thr = 0.0005
   restart_mode = 'from_scratch'
   nstep = 100
   outdir = './'
/
&SYSTEM
   ibrav = 1
   ecutrho = 480
   ecutwfc = 60
   smearing = "mv"
   degauss = 0.01
   nat = 23
   ntyp = 3
   tot_charge = 1
   celldm(1) = 30.0115927711
/
&ELECTRONS
   electron_maxstep = 200
   conv_thr = 5.d-9
/
&IONS
   ion_dynamics = 'bfgs'
/
&CELL
/
K_POINTS (automatic)
1 1 1 0 0 0
ATOMIC_SPECIES
H   1.008  H.pbe-rrkjus_psl.1.0.0.UPF
C  12.010  C.pbe-n-kjpaw_psl.1.0.0.UPF
N  14.006  N.pbe-n-radius_5.UPF
ATOMIC_POSITIONS (bohr)
C 16.61544789 14.97445087 16.80259729
C 17.39267398 12.29342942 17.49757311
C 18.91885612 12.23085083 19.94862490
C 14.26094144 17.58296512 13.57542783
C 12.74086803 17.49760476 11.13277160
C 10.25977138 16.02585207 11.30993355
H 15.40151172 15.81443357 18.25846232
H 15.69046749 11.11355720 17.69923853
H 15.97010788 18.72768912 13.34360784
H 16.20369090 14.22341579 12.96796306
H 17.81981344 12.98291958 21.54365057
H 18.26326462 16.20060236 16.51616281
H 18.51766036 11.48148299 15.94709030
H 19.46131405 10.28313081 20.41308439
H 20.65819223 13.35481843 19.78136815
H 13.92769599 16.73213825 9.60447851
H 13.58829647 13.83572466 14.61661158
H 13.14321855 18.35945703 15.14010216
H 12.34516410 19.47510447 10.62614807
H 10.57135900 14.00115923 11.65558224
H 9.20273678 16.17658717 9.53205780
H 9.05394801 16.76438470 12.83294386
N 15.12632399 15.00156411 14.38783263
