&CONTROL
   calculation = 'relax'
   pseudo_dir = './pseudos'
   tprnfor = .TRUE.
   forc_conv_thr = 0.0005
   restart_mode = 'from_scratch'
   nstep = 100
   outdir = './'
/
&SYSTEM
   ibrav = 1
   ecutrho = 480
   ecutwfc = 60
   smearing = "mv"
   degauss = 0.01
   nat = 21
   ntyp = 3
   tot_charge = 1
   celldm(1) = 28.3713909426
/
&ELECTRONS
   electron_maxstep = 200
   conv_thr = 5.d-9
/
&IONS
   ion_dynamics = 'bfgs'
/
&CELL
/
K_POINTS (automatic)
1 1 1 0 0 0
ATOMIC_SPECIES
H   1.008  H.pbe-rrkjus_psl.1.0.0.UPF
C  12.010  C.pbe-n-kjpaw_psl.1.0.0.UPF
N  14.006  N.pbe-n-radius_5.UPF
ATOMIC_POSITIONS (bohr)
C 15.63911532 12.97657951 14.47185002
C 15.70275755 15.01930613 12.43664919
C 13.66571072 13.53258080 16.50020773
C 13.08244204 15.36152342 11.24986914
C 11.06686519 15.90981556 13.25280334
C 11.04655622 13.87560481 15.31131520
H 14.20005663 15.27825131 17.50470440
H 15.24490152 11.13290805 13.59985470
H 16.30757335 16.81658869 13.30032991
H 17.10040520 14.53640765 10.97653831
H 18.23076460 11.31426040 17.00602454
H 18.74238181 14.37461223 16.53954012
H 19.56443303 12.28743325 14.34529623
H 13.62656455 12.00158735 17.90477619
H 13.15719765 16.89772176 9.85213167
H 12.56857226 13.63277339 10.20520120
H 11.45100148 17.76463738 14.12421234
H 10.42135901 12.06461135 14.49076621
H 9.67751794 14.35633280 16.79918752
H 9.19304209 16.04481663 12.36050145
N 18.21038485 12.72124866 15.66784550
