&CONTROL
   calculation = 'relax'
   pseudo_dir = './pseudos'
   tprnfor = .TRUE.
   forc_conv_thr = 0.0005
   restart_mode = 'from_scratch'
   nstep = 100
   outdir = './'
/
&SYSTEM
   ibrav = 1
   ecutrho = 480
   ecutwfc = 60
   smearing = "mv"
   degauss = 0.01
   nat = 10
   ntyp = 3
   tot_charge = 1
   celldm(1) = 25.6610916313
/
&ELECTRONS
   electron_maxstep = 200
   conv_thr = 5.d-9
/
&IONS
   ion_dynamics = 'bfgs'
/
&CELL
/
K_POINTS (automatic)
1 1 1 0 0 0
ATOMIC_SPECIES
H   1.008  H.pbe-rrkjus_psl.1.0.0.UPF
C  12.010  C.pbe-n-kjpaw_psl.1.0.0.UPF
O  15.999  O.pbe-n-kjpaw_psl.0.1.UPF
ATOMIC_POSITIONS (bohr)
C 13.27003596 6.82886146 13.56390690
C 15.42947827 7.77157798 11.97429157
H 13.01133542 4.78183493 13.36677055
H 13.52177280 7.29751184 15.56640021
H 15.22457186 7.28328767 9.97869144
H 15.75752747 9.80468560 12.18138134
H 18.35434518 6.95343815 14.47184345
H 19.20010885 6.78232730 11.54247414
H 11.53901722 7.76337637 12.90685946
O 17.80913847 6.45655220 12.75283909
