&CONTROL
   calculation = 'relax'
   pseudo_dir = './pseudos'
   tprnfor = .TRUE.
   forc_conv_thr = 0.0005
   restart_mode = 'from_scratch'
   nstep = 100
   outdir = './'
/
&SYSTEM
   ibrav = 1
   ecutrho = 480
   ecutwfc = 60
   smearing = "mv"
   degauss = 0.01
   nat = 11
   ntyp = 3
   tot_charge = 1
   celldm(1) = 25.2441129614
/
&ELECTRONS
   electron_maxstep = 200
   conv_thr = 5.d-9
/
&IONS
   ion_dynamics = 'bfgs'
/
&CELL
/
K_POINTS (automatic)
1 1 1 0 0 0
ATOMIC_SPECIES
H   1.008  H.pbe-rrkjus_psl.1.0.0.UPF
C  12.010  C.pbe-n-kjpaw_psl.1.0.0.UPF
O  15.999  O.pbe-n-kjpaw_psl.0.1.UPF
ATOMIC_POSITIONS (bohr)
C 15.00887138 13.04298380 12.84822043
C 12.42446363 12.07421314 12.52227698
C 10.14556596 13.65938817 12.62349819
H 13.58317426 8.66186963 12.05187268
H 15.04236404 15.07820694 13.17863744
H 15.91041210 12.03659374 14.43067551
H 16.12711857 12.56510618 11.15972084
H 10.57441060 15.64584816 12.97211375
H 9.10793868 13.44238874 10.83181251
H 8.88300561 12.91471102 14.10162497
O 12.03529646 9.72131364 12.12216987
