&CONTROL
   calculation = 'relax'
   pseudo_dir = './pseudos'
   tprnfor = .TRUE.
   forc_conv_thr = 0.0005
   restart_mode = 'from_scratch'
   nstep = 100
   outdir = './'
/
&SYSTEM
   ibrav = 1
   ecutrho = 480
   ecutwfc = 60
   smearing = "mv"
   degauss = 0.01
   nat = 17
   ntyp = 3
   tot_charge = 1
   celldm(1) = 25.6260335021
/
&ELECTRONS
   electron_maxstep = 200
   conv_thr = 5.d-9
/
&IONS
   ion_dynamics = 'bfgs'
/
&CELL
/
K_POINTS (automatic)
1 1 1 0 0 0
ATOMIC_SPECIES
H   1.008  H.pbe-rrkjus_psl.1.0.0.UPF
C  12.010  C.pbe-n-kjpaw_psl.1.0.0.UPF
N  14.006  N.pbe-n-radius_5.UPF
ATOMIC_POSITIONS (bohr)
C 14.14710787 14.81950359 14.44648317
C 12.77074027 12.82855773 12.87039641
C 12.39739276 10.37476187 14.34766158
C 10.26980089 13.83592736 11.83450182
H 12.99624474 15.31149265 16.09899761
H 13.62740047 10.88264401 9.46542668
H 14.20868907 9.62325675 15.02783632
H 14.47594241 16.55128922 13.35037225
H 14.77453364 13.79769513 9.52951923
H 15.97683151 14.11030495 15.12294063
H 16.17108853 11.52784467 11.17808012
H 11.47989108 8.92525572 13.17907807
H 11.19013240 10.73435080 15.99413111
H 10.55942633 15.55696144 10.71092636
H 9.32508390 12.42262208 10.64366049
H 9.00468101 14.30010677 13.40982735
N 14.44629788 12.21870813 10.61144368
