&CONTROL
   calculation = 'relax'
   pseudo_dir = './pseudos'
   tprnfor = .TRUE.
   forc_conv_thr = 0.0005
   restart_mode = 'from_scratch'
   nstep = 100
   outdir = './'
/
&SYSTEM
   ibrav = 1
   ecutrho = 480
   ecutwfc = 60
   smearing = "mv"
   degauss = 0.01
   nat = 14
   ntyp = 3
   tot_charge = 1
   celldm(1) = 25.7331765689
/
&ELECTRONS
   electron_maxstep = 200
   conv_thr = 5.d-9
/
&IONS
   ion_dynamics = 'bfgs'
/
&CELL
/
K_POINTS (automatic)
1 1 1 0 0 0
ATOMIC_SPECIES
H   1.008  H.pbe-rrkjus_psl.1.0.0.UPF
C  12.010  C.pbe-n-kjpaw_psl.1.0.0.UPF
N  14.006  N.pbe-n-radius_5.UPF
ATOMIC_POSITIONS (bohr)
C 13.44451575 12.36631206 15.45558490
C 14.25544067 11.61638902 10.91654647
C 11.19473015 14.88972098 12.23511273
H 13.33494439 11.57149676 9.06779442
H 14.17783782 10.47521602 15.84652867
H 14.96802511 13.76284536 15.53924923
H 14.96816915 9.74017662 11.40542509
H 15.79543703 12.99722653 10.92254428
H 12.68248800 16.32636551 12.26756447
H 11.95235955 12.84640899 16.80097099
H 10.91851534 11.06398794 12.81523195
H 10.34251264 14.77666505 10.35687725
H 9.75143663 15.31519574 13.65035243
N 12.34581998 12.38423505 12.85245501
