&CONTROL
   calculation = 'relax'
   pseudo_dir = './pseudos'
   tprnfor = .TRUE.
   forc_conv_thr = 0.0005
   restart_mode = 'from_scratch'
   nstep = 100
   outdir = './'
/
&SYSTEM
   ibrav = 1
   ecutrho = 480
   ecutwfc = 60
   smearing = "mv"
   degauss = 0.01
   nat = 7
   ntyp = 3
   tot_charge = 1
   celldm(1) = 22.6810731716
/
&ELECTRONS
   electron_maxstep = 200
   conv_thr = 5.d-9
/
&IONS
   ion_dynamics = 'bfgs'
/
&CELL
/
K_POINTS (automatic)
1 1 1 0 0 0
ATOMIC_SPECIES
H   1.008  H.pbe-rrkjus_psl.1.0.0.UPF
C  12.010  C.pbe-n-kjpaw_psl.1.0.0.UPF
O  15.999  O.pbe-n-kjpaw_psl.0.1.UPF
ATOMIC_POSITIONS (bohr)
C 12.84445873 6.12098967 10.91516201
H 11.73756125 6.16594361 12.65915617
H 12.00481765 4.86568742 9.51181384
H 13.13085734 8.01235455 10.14585664
H 15.32196451 3.33128138 12.04351392
H 16.33067422 6.17487267 12.65822154
O 15.38173620 5.10522016 11.45003198
