&CONTROL
   calculation = 'relax'
   pseudo_dir = './pseudos'
   tprnfor = .TRUE.
   forc_conv_thr = 0.0005
   restart_mode = 'from_scratch'
   nstep = 100
   outdir = './'
/
&SYSTEM
   ibrav = 1
   ecutrho = 480
   ecutwfc = 60
   smearing = "mv"
   degauss = 0.01
   nat = 14
   ntyp = 3
   tot_charge = 1
   celldm(1) = 26.1102305993
/
&ELECTRONS
   electron_maxstep = 200
   conv_thr = 5.d-9
/
&IONS
   ion_dynamics = 'bfgs'
/
&CELL
/
K_POINTS (automatic)
1 1 1 0 0 0
ATOMIC_SPECIES
H   1.008  H.pbe-rrkjus_psl.1.0.0.UPF
C  12.010  C.pbe-n-kjpaw_psl.1.0.0.UPF
N  14.006  N.pbe-n-radius_5.UPF
ATOMIC_POSITIONS (bohr)
C 13.49552084 12.44037509 13.16425944
C 12.10690944 12.03353365 10.68064348
C 11.75333420 12.62588037 15.44296559
H 13.42549638 11.93281781 9.08200194
H 13.93589527 16.38115520 12.70693990
H 14.86843895 10.91550255 13.45584565
H 16.08915063 15.10934880 14.60532167
H 16.31905992 14.72438358 11.50948573
H 12.82337208 12.94152533 17.19223254
H 11.05694694 10.24833322 10.76036913
H 10.75275770 13.56615090 10.32195144
H 10.69409477 10.85632860 15.64869651
H 10.38910696 14.17472458 15.21649626
N 15.06153579 14.82155264 12.98440302
