&CONTROL
   calculation = 'relax'
   pseudo_dir = './pseudos'
   tprnfor = .TRUE.
   forc_conv_thr = 0.0005
   restart_mode = 'from_scratch'
   nstep = 100
   outdir = './'
/
&SYSTEM
   ibrav = 1
   ecutrho = 480
   ecutwfc = 60
   smearing = "mv"
   degauss = 0.01
   nat = 10
   ntyp = 3
   tot_charge = 1
   celldm(1) = 24.8116575976
/
&ELECTRONS
   electron_maxstep = 200
   conv_thr = 5.d-9
/
&IONS
   ion_dynamics = 'bfgs'
/
&CELL
/
K_POINTS (automatic)
1 1 1 0 0 0
ATOMIC_SPECIES
H   1.008  H.pbe-rrkjus_psl.1.0.0.UPF
C  12.010  C.pbe-n-kjpaw_psl.1.0.0.UPF
O  15.999  O.pbe-n-kjpaw_psl.0.1.UPF
ATOMIC_POSITIONS (bohr)
C 13.36426101 8.47817966 11.66469549
C 15.95350281 4.75971922 13.28601137
H 12.97671554 7.49612161 9.88503806
H 13.62112340 10.51364335 11.41345358
H 14.50060401 4.41333652 14.71122861
H 15.61600775 3.70198576 11.53967882
H 17.23441569 8.05886530 11.66317558
H 17.84628610 4.44737676 14.05585986
H 11.94802020 8.07691504 13.11200279
O 15.80923237 7.53013257 12.72714384
