 &CONTROL
   !
   calculation = 'relax'
   restart_mode = 'from_scratch'
    pseudo_dir = ./pseudos
   outdir = ./
   prefix = MOL_013
   tprnfor = .TRUE.
   !
 /
 &SYSTEM
   !
   ecutrho = 300
   ecutwfc = 30
   !
   ibrav = 1
   celldm( 1 ) = 23.9854
   !
   nat = 16
   ntyp = 3
   !
   !
/
 &ELECTRONS
   !
   conv_thr = 5.D-9
   diagonalization = 'cg'
   mig_beta = 0.4
   electron_maxstep = 200
   !
 /
 &IONS
   !
   ion_dynamics    = 'bfgs'
   !
 /
K_POINTS (automatic)
 1 1 1 0 0 0
ATOMIC_SPECIES  
C   12      C.pbe-rrkjus.UPF
H    1      H.pbe-rrkjus.UPF
N   14      N.pbe-rrkjus.UPF
ATOMIC_POSITIONS (angstrom)
C       -1.250717336  -1.048508879  -0.404556161
C        0.700225829   0.380168234  -0.141098283
C       -0.029362648   1.168481212   0.952422550
C       -1.974184270  -0.255786132   0.689835794
H        1.783767753   0.362332598   0.062954078
H       -1.527410414  -0.623021097  -1.398928810
H       -1.579870959  -2.100874502  -0.391195598
H        0.230328326   0.733638580   1.933577775
H        0.298935583   2.220126986   0.955876966
H       -1.809229151  -0.760065099   1.658173207
H       -3.059730069  -0.239520798   0.502491603
H        0.551318962   0.899264200  -1.118219866
N       -1.494269661   1.128726089   0.821648859
H       -1.771813135   1.661122322  -0.010356626
N        0.194904523  -0.998561081  -0.151557199
H        0.698839027  -1.559655822  -0.840675448
