 &CONTROL
   !
   calculation = 'relax'
   restart_mode = 'from_scratch'
    pseudo_dir = ./pseudos
   outdir = ./
   prefix = MOL_014
   tprnfor = .TRUE.
   !
 /
 &SYSTEM
   !
   ecutrho = 300
   ecutwfc = 30
   !
   ibrav = 1
   celldm( 1 ) = 23.7898
   !
   nat = 17
   ntyp = 3
   !
   !
/
 &ELECTRONS
   !
   conv_thr = 5.D-9
   diagonalization = 'cg'
   mig_beta = 0.4
   electron_maxstep = 200
   !
 /
 &IONS
   !
   ion_dynamics    = 'bfgs'
   !
 /
K_POINTS (automatic)
 1 1 1 0 0 0
ATOMIC_SPECIES  
C   12      C.pbe-rrkjus.UPF
H    1      H.pbe-rrkjus.UPF
N   14      N.pbe-rrkjus.UPF
ATOMIC_POSITIONS (angstrom)
C       -2.249317511  -0.842515992  -1.288474008
C       -0.718640527  -0.814331843  -1.255140697
C       -0.717179335   1.348847418  -0.122695233
C       -2.247807184   1.393917276  -0.117644800
C       -2.829765604  -0.026120468  -0.125826539
H       -0.368326293  -1.362127417  -0.346913180
H       -0.304518499  -1.339124599  -2.131445877
H       -2.589226529  -0.416825260  -2.249142522
H       -2.606010019  -1.884685556  -1.245577015
H       -0.366768650   0.914306581   0.844776235
H       -0.302035213   2.367577443  -0.190998534
H       -2.603377370   1.952690522   0.763561401
H       -2.587716061   1.941234907  -1.014610913
H       -2.578632285  -0.526239608   0.829258454
H       -3.930215555   0.004404775  -0.182697702
N       -0.248837633   0.577549679  -1.282266381
H        0.772194598   0.601964773  -1.330216309
