 &CONTROL
   !
   calculation = 'relax'
   restart_mode = 'from_scratch'
    pseudo_dir = ./pseudos
   outdir = ./
   prefix = MOL_043
   tprnfor = .TRUE.
   !
 /
 &SYSTEM
   !
   ecutrho = 300
   ecutwfc = 30
   !
   ibrav = 1
   celldm( 1 ) = 25.7819
   !
   nat = 15
   ntyp = 2
   !
   !
/
 &ELECTRONS
   !
   conv_thr = 5.D-9
   diagonalization = 'cg'
   mig_beta = 0.4
   electron_maxstep = 200
   !
 /
 &IONS
   !
   ion_dynamics    = 'bfgs'
   !
 /
K_POINTS (automatic)
 1 1 1 0 0 0
ATOMIC_SPECIES  
C   12      C.pbe-rrkjus.UPF
H    1      H.pbe-rrkjus.UPF
ATOMIC_POSITIONS (angstrom)
C       -3.560713729   1.468342357  -0.301473086
H       -3.113753888   0.682460843  -0.917617272
H       -4.649695966   1.472818152  -0.218839300
C       -2.807192861   2.377974764   0.325965300
H       -3.305813458   3.144769913   0.933400925
C       -1.310213611   2.471638171   0.266530818
H       -0.911178684   1.680204554  -0.390815426
H       -0.895455927   2.280614082   1.275285564
C       -0.817303112   3.854481887  -0.196863291
H       -1.254210434   4.621224552   0.466587433
H       -1.219969604   4.063417151  -1.202865342
C        0.708447511   3.983222176  -0.203525884
H        1.020445949   5.019028409  -0.406514789
H        1.137025619   3.688726954   0.768572377
H        1.164387257   3.341342213  -0.974264247
