 &CONTROL
   !
   calculation = 'relax'
   restart_mode = 'from_scratch'
    pseudo_dir = ./pseudos
   outdir = ./
   prefix = MOL_012
   tprnfor = .TRUE.
   !
 /
 &SYSTEM
   !
   ecutrho = 300
   ecutwfc = 30
   !
   ibrav = 1
   celldm( 1 ) = 22.8719
   !
   nat = 22
   ntyp = 3
   !
   !
/
 &ELECTRONS
   !
   conv_thr = 5.D-9
   diagonalization = 'cg'
   mig_beta = 0.4
   electron_maxstep = 200
   !
 /
 &IONS
   !
   ion_dynamics    = 'bfgs'
   !
 /
K_POINTS (automatic)
 1 1 1 0 0 0
ATOMIC_SPECIES  
C   12      C.pbe-rrkjus.UPF
H    1      H.pbe-rrkjus.UPF
N   14      N.pbe-rrkjus.UPF
ATOMIC_POSITIONS (angstrom)
C       -4.491013932   0.458180291  -0.059694247
H       -3.718418306  -0.233118249  -0.433087802
H       -4.753002911   1.139684850  -0.882072746
H       -5.384265568  -0.142161989   0.175758715
C       -3.996921448   1.223684566   1.169449858
H       -4.777454544   1.931570129   1.503501125
H       -3.113381839   1.831515589   0.913994106
C       -3.635251857   0.285471511   2.318722770
H       -2.838182206  -0.403352399   1.985833216
H       -4.515411893  -0.358446394   2.555085134
N       -3.130948155   0.999511425   3.492887078
H       -3.829833620   1.683185441   3.800376354
C       -2.805666833   0.105091054   4.605123105
H       -3.665324376  -0.543258366   4.898069703
H       -2.015447159  -0.582320494   4.253507577
C       -2.303374762   0.855285213   5.836704348
H       -3.080640162   1.562527816   6.179649738
H       -1.430751644   1.465493900   5.551154025
C       -1.937673808  -0.097327322   6.976774630
H       -1.140873777  -0.794040831   6.670530573
H       -1.579801602   0.449226505   7.861413247
H       -2.804538148  -0.703392735   7.285107122
