 &CONTROL
   !
   calculation = 'relax'
   restart_mode = 'from_scratch'
    pseudo_dir = ./pseudos
   outdir = ./
   prefix = MOL_049
   tprnfor = .TRUE.
   !
 /
 &SYSTEM
   !
   ecutrho = 300
   ecutwfc = 30
   !
   ibrav = 1
   celldm( 1 ) = 25.2079
   !
   nat = 15
   ntyp = 2
   !
   !
/
 &ELECTRONS
   !
   conv_thr = 5.D-9
   diagonalization = 'cg'
   mig_beta = 0.4
   electron_maxstep = 200
   !
 /
 &IONS
   !
   ion_dynamics    = 'bfgs'
   !
 /
K_POINTS (automatic)
 1 1 1 0 0 0
ATOMIC_SPECIES  
C   12      C.pbe-rrkjus.UPF
H    1      H.pbe-rrkjus.UPF
ATOMIC_POSITIONS (angstrom)
C       -2.049499847  -0.715118411  -0.422455524
H       -3.128816011  -0.603771867  -0.580676172
C       -1.393990115   0.330505590   0.104546016
H       -1.992882039   1.203569187   0.389147492
C        0.083527170   0.448711844   0.329525033
H        0.452826164   1.374952934  -0.139034725
H        0.336517794   0.516638782   1.400172821
H        0.644626045  -0.389249217  -0.105811361
C       -1.488611343  -2.048397088  -0.832980366
H       -1.369587207  -2.074129029  -1.931074791
H       -0.479481278  -2.193587564  -0.419535833
C       -2.401542160  -3.209131080  -0.413338631
H       -3.407589235  -3.072217535  -0.836862631
H       -2.021818055  -4.183085846  -0.756648147
H       -2.509671293  -3.262781180   0.679725942
