 &CONTROL
   !
   calculation = 'relax'
   restart_mode = 'from_scratch'
    pseudo_dir = ./pseudos
   outdir = ./
   prefix = MOL_031
   tprnfor = .TRUE.
   !
 /
 &SYSTEM
   !
   ecutrho = 300
   ecutwfc = 30
   !
   ibrav = 1
   celldm( 1 ) = 20
   !
   nat = 6
   ntyp = 3
   !
   !
/
 &ELECTRONS
   !
   conv_thr = 5.D-9
   diagonalization = 'cg'
   mig_beta = 0.4
   electron_maxstep = 200
   !
 /
 &IONS
   !
   ion_dynamics    = 'bfgs'
   !
 /
K_POINTS (automatic)
 1 1 1 0 0 0
ATOMIC_SPECIES  
C   12      C.pbe-rrkjus.UPF
H    1      H.pbe-rrkjus.UPF
O   16      O.pbe-rrkjus.UPF
ATOMIC_POSITIONS (angstrom)
C       -1.333035332   0.521171553   0.002657532
H       -0.953380227  -0.509103106   0.027456408
H       -0.967939239   1.006912508  -0.920664651
H       -2.437621015   0.487461650  -0.020614004
O       -0.835994889   1.164599794   1.186101171
H       -1.160136329   2.082714311   1.187009624
