 &CONTROL
   !
   calculation = 'relax'
   restart_mode = 'from_scratch'
    pseudo_dir = ./pseudos
   outdir = ./
   prefix = MOL_024
   tprnfor = .TRUE.
   !
 /
 &SYSTEM
   !
   ecutrho = 300
   ecutwfc = 30
   !
   ibrav = 1
   celldm( 1 ) = 25.6828
   !
   nat = 16
   ntyp = 3
   !
   !
/
 &ELECTRONS
   !
   conv_thr = 5.D-9
   diagonalization = 'cg'
   mig_beta = 0.4
   electron_maxstep = 200
   !
 /
 &IONS
   !
   ion_dynamics    = 'bfgs'
   !
 /
K_POINTS (automatic)
 1 1 1 0 0 0
ATOMIC_SPECIES  
C   12      C.pbe-rrkjus.UPF
H    1      H.pbe-rrkjus.UPF
O   16      O.pbe-rrkjus.UPF
ATOMIC_POSITIONS (angstrom)
C        0.197372347   0.425436234   0.027331627
C        1.590095302   0.391608213  -0.054091298
C        2.313745773   1.587630123  -0.114158404
C        1.659980698   2.836626239  -0.075311544
C        0.259466621   2.840366100   0.000338224
C       -0.476290455   1.651898043   0.043379619
H       -0.358567967  -0.513843517   0.077895431
H        2.137165472  -0.552663461  -0.071030524
H       -0.259758415   3.803308198   0.030851781
H       -1.566056482   1.681821580   0.099656325
O        3.688652320   1.484927812  -0.201829564
H        4.068446511   2.383537810  -0.247633500
C        2.461720371   4.112376907  -0.103886788
H        3.221910245   4.135742973   0.697842096
H        2.988018176   4.252201015  -1.065170725
H        1.814539042   4.988220411   0.042245013
