 &CONTROL
   !
   calculation = 'relax'
   restart_mode = 'from_scratch'
    pseudo_dir = ./pseudos
   outdir = ./
   prefix = MOL_003
   tprnfor = .TRUE.
   !
 /
 &SYSTEM
   !
   ecutrho = 300
   ecutwfc = 30
   !
   ibrav = 1
   celldm( 1 ) = 24.0954
   !
   nat = 19
   ntyp = 3
   !
   !
/
 &ELECTRONS
   !
   conv_thr = 5.D-9
   diagonalization = 'cg'
   mig_beta = 0.4
   electron_maxstep = 200
   !
 /
 &IONS
   !
   ion_dynamics    = 'bfgs'
   !
 /
K_POINTS (automatic)
 1 1 1 0 0 0
ATOMIC_SPECIES  
C   12      C.pbe-rrkjus.UPF
H    1      H.pbe-rrkjus.UPF
N   14      N.pbe-rrkjus.UPF
ATOMIC_POSITIONS (angstrom)
C        1.181032646  -1.776561208   0.014933024
C        1.917614877  -0.429624722  -0.104294544
C       -0.121569110   0.874891601   0.027311783
C       -0.666948321  -0.364388351  -0.702563151
H        2.923540699  -0.529985386   0.331405521
H        1.476677778  -2.273656842   0.954494913
H        1.498625948  -2.426086937  -0.827282643
H       -0.302214335  -0.371378857  -1.754486661
H       -0.054838171   1.714418652  -0.703482814
H       -0.815696114   1.183635980   0.828682970
H       -1.765205136  -0.306973846  -0.748636157
H        2.064357672  -0.153788395  -1.177011904
N        1.187615163   0.592131490   0.636752182
N       -0.279156867  -1.559027459   0.045656489
H       -0.771229991  -2.384297739  -0.298028688
C        1.948355725   1.800971577   0.897523543
H        1.370400862   2.468059729   1.557511833
H        2.889785877   1.548684921   1.409650709
H        2.198740288   2.375875392  -0.026300015
