 &CONTROL
   !
   calculation = 'relax'
   restart_mode = 'from_scratch'
    pseudo_dir = ./pseudos
   outdir = ./
   prefix = MOL_028
   tprnfor = .TRUE.
   !
 /
 &SYSTEM
   !
   ecutrho = 300
   ecutwfc = 30
   !
   ibrav = 1
   celldm( 1 ) = 24.013
   !
   nat = 19
   ntyp = 3
   !
   !
/
 &ELECTRONS
   !
   conv_thr = 5.D-9
   diagonalization = 'cg'
   mig_beta = 0.4
   electron_maxstep = 200
   !
 /
 &IONS
   !
   ion_dynamics    = 'bfgs'
   !
 /
K_POINTS (automatic)
 1 1 1 0 0 0
ATOMIC_SPECIES  
C   12      C.pbe-rrkjus.UPF
H    1      H.pbe-rrkjus.UPF
O   16      O.pbe-rrkjus.UPF
ATOMIC_POSITIONS (angstrom)
C       -2.008303257  -2.465080817  -0.030693366
C       -0.476980022  -2.352417614  -0.081962042
C       -0.027474080  -0.890287410  -0.015683057
C       -0.629227191  -0.152768682   1.189011590
C       -2.160267157  -0.264948399   1.212440701
C       -2.612273209  -1.731222146   1.174528382
H        1.073621001  -0.854192780   0.014596006
H       -0.111097025  -2.804872540  -1.025736571
H       -2.413274450  -2.038013874  -0.967179756
H       -2.302707739  -3.530583321  -0.028348639
H       -0.215774324  -0.583801502   2.116969782
H       -0.323768800   0.906149043   1.165978203
H       -2.564479501   0.233495023   2.109268117
H       -2.582524104   0.268565978   0.338896657
H       -2.296420302  -2.233128641   2.106031876
H       -3.712372392  -1.795005244   1.136789950
H       -0.340672663  -0.395544864  -0.952980215
O        0.149998093  -3.031437622   1.035516192
H       -0.211774557  -3.936546158   1.072160281
