 &CONTROL
   !
   calculation = 'relax'
   restart_mode = 'from_scratch'
    pseudo_dir = ./pseudos
   outdir = ./
   prefix = MOL_004
   tprnfor = .TRUE.
   !
 /
 &SYSTEM
   !
   ecutrho = 300
   ecutwfc = 30
   !
   ibrav = 1
   celldm( 1 ) = 28.3335
   !
   nat = 19
   ntyp = 3
   !
   !
/
 &ELECTRONS
   !
   conv_thr = 5.D-9
   diagonalization = 'cg'
   mig_beta = 0.4
   electron_maxstep = 200
   !
 /
 &IONS
   !
   ion_dynamics    = 'bfgs'
   !
 /
K_POINTS (automatic)
 1 1 1 0 0 0
ATOMIC_SPECIES  
C   12      C.pbe-rrkjus.UPF
H    1      H.pbe-rrkjus.UPF
N   14      N.pbe-rrkjus.UPF
ATOMIC_POSITIONS (angstrom)
C       -3.250304995   0.799169686  -0.025836277
H       -2.852991927  -0.226507615  -0.097354859
H       -2.942871511   1.340566682  -0.933437559
H       -4.350345962   0.729630726  -0.034038667
C       -2.754600971   1.490158704   1.246535804
H       -3.141000019   2.524828455   1.282620997
H       -1.653413270   1.575246140   1.219415000
C       -3.171835997   0.752800349   2.522854668
H       -2.786182477  -0.283192429   2.481537175
H       -4.274439172   0.667383391   2.544106237
C       -2.689476293   1.420066056   3.812923842
H       -3.075412960   2.456568898   3.854083355
H       -1.588397675   1.498409138   3.814137040
C       -3.130051621   0.676599865   5.072655189
H       -2.711631332  -0.344389108   5.054955482
H       -4.236380949   0.565454840   5.055447074
N       -2.614278412   1.341642239   6.281488311
H       -2.996015243   2.289660212   6.351939593
H       -2.919059323   0.845238031   7.122697974
