 &CONTROL
   !
   calculation = 'relax'
   restart_mode = 'from_scratch'
    pseudo_dir = ./pseudos
   outdir = ./
   prefix = MOL_010
   tprnfor = .TRUE.
   !
 /
 &SYSTEM
   !
   ecutrho = 300
   ecutwfc = 30
   !
   ibrav = 1
   celldm( 1 ) = 25.5612
   !
   nat = 16
   ntyp = 3
   !
   !
/
 &ELECTRONS
   !
   conv_thr = 5.D-9
   diagonalization = 'cg'
   mig_beta = 0.4
   electron_maxstep = 200
   !
 /
 &IONS
   !
   ion_dynamics    = 'bfgs'
   !
 /
K_POINTS (automatic)
 1 1 1 0 0 0
ATOMIC_SPECIES  
C   12      C.pbe-rrkjus.UPF
H    1      H.pbe-rrkjus.UPF
N   14      N.pbe-rrkjus.UPF
ATOMIC_POSITIONS (angstrom)
C       -4.278354331   0.962206823   0.347692262
H       -3.937883713   0.974238537   1.396243877
H       -3.956577297   1.901409804  -0.126289321
H       -5.378471756   0.933204342   0.356124170
C       -3.709603964  -0.239061127  -0.399525089
H       -4.066262703  -0.229691455  -1.444702771
H       -4.097532363  -1.182305368   0.051556717
N       -2.245676883  -0.201733849  -0.441485077
H       -1.877069119  -0.151349994   0.514680357
C       -1.657110361  -1.351926429  -1.132121940
H       -1.992138122  -2.323810228  -0.699900734
H       -2.029739005  -1.333928781  -2.171603986
C       -0.133831802  -1.284860594  -1.131701384
H        0.263398105  -1.303603763  -0.103412270
H        0.296125874  -2.143478258  -1.669367215
H        0.213595121  -0.359547300  -1.614841815
