 &CONTROL
   !
   calculation = 'relax'
   restart_mode = 'from_scratch'
    pseudo_dir = ./pseudos
   outdir = ./
   prefix = MOL_002
   tprnfor = .TRUE.
   !
 /
 &SYSTEM
   !
   ecutrho = 300
   ecutwfc = 30
   !
   ibrav = 1
   celldm( 1 ) = 20.3504
   !
   nat = 16
   ntyp = 3
   !
   !
/
 &ELECTRONS
   !
   conv_thr = 5.D-9
   diagonalization = 'cg'
   mig_beta = 0.4
   electron_maxstep = 200
   !
 /
 &IONS
   !
   ion_dynamics    = 'bfgs'
   !
 /
K_POINTS (automatic)
 1 1 1 0 0 0
ATOMIC_SPECIES  
C   12      C.pbe-rrkjus.UPF
H    1      H.pbe-rrkjus.UPF
N   14      N.pbe-rrkjus.UPF
ATOMIC_POSITIONS (angstrom)
C       -2.884247094   0.320900248   0.070574061
H       -2.581919603  -0.736723721   0.002755079
H       -2.544383174   0.825377195  -0.847011476
H       -3.985989819   0.352248535   0.080599024
C       -2.306619397   0.976974481   1.327080754
H       -2.597424629   2.042901812   1.356193959
H       -1.202392663   0.960989787   1.279585770
C       -2.764216820   0.292525024   2.618438123
H       -2.468968357  -0.771747047   2.607586506
H       -3.870508771   0.306828409   2.662249163
C       -2.207873252   0.946291319   3.881639707
H       -2.476283033   2.025690437   3.875001530
H       -1.105369476   0.895587190   3.858728244
N       -2.655435963   0.227506483   5.086972619
H       -2.283956828   0.674570988   5.928795736
H       -3.676717280   0.267533420   5.163168541
