 &CONTROL
   !
   calculation = 'relax'
   restart_mode = 'from_scratch'
    pseudo_dir = ./pseudos
   outdir = ./
   prefix = MOL_001
   tprnfor = .TRUE.
   !
 /
 &SYSTEM
   !
   ecutrho = 300
   ecutwfc = 30
   !
   ibrav = 1
   celldm( 1 ) = 26.0027
   !
   nat = 22
   ntyp = 3
   !
   !
/
 &ELECTRONS
   !
   conv_thr = 5.D-9
   diagonalization = 'cg'
   mig_beta = 0.4
   electron_maxstep = 200
   !
 /
 &IONS
   !
   ion_dynamics    = 'bfgs'
   !
 /
K_POINTS (automatic)
 1 1 1 0 0 0
ATOMIC_SPECIES  
C   12      C.pbe-rrkjus.UPF
H    1      H.pbe-rrkjus.UPF
N   14      N.pbe-rrkjus.UPF
ATOMIC_POSITIONS (angstrom)
C       -1.109333229  -1.305316673  -0.140550504
C       -0.293329109   0.000050608  -0.144044214
C       -2.256276922   1.399846686   0.008937316
C       -2.881046887   0.217685836  -0.753948132
H        0.694417737  -0.186139511   0.306425570
H       -0.842652767  -1.927699229   0.731274676
H       -0.845325201  -1.888248764  -1.054032953
H       -2.543961010   0.220666439  -1.818986528
H       -2.115368796   2.244876423  -0.705254141
H       -2.937617911   1.753844399   0.801958399
H       -3.976097623   0.334681117  -0.774310542
H       -0.103222840   0.336661317  -1.192242695
N       -0.981691534   1.020371590   0.637756622
N       -2.554456675  -1.035934380  -0.084495509
C       -0.163992995   2.186416120   0.925912550
H       -0.722613487   2.869748111   1.584884898
H        0.755985755   1.882206021   1.448151684
H        0.124069505   2.757635908   0.010088598
C       -3.324784758  -2.171259133  -0.563121982
H       -3.081628835  -3.058481257   0.042910794
H       -4.401307777  -1.968183580  -0.457208919
H       -3.117798520  -2.422721740  -1.631667210
