 &CONTROL
   !
   calculation = 'relax'
   restart_mode = 'from_scratch'
    pseudo_dir = ./pseudos
   outdir = ./
   prefix = MOL_021
   tprnfor = .TRUE.
   !
 /
 &SYSTEM
   !
   ecutrho = 300
   ecutwfc = 30
   !
   ibrav = 1
   celldm( 1 ) = 32.9409
   !
   nat = 27
   ntyp = 3
   !
   !
/
 &ELECTRONS
   !
   conv_thr = 5.D-9
   diagonalization = 'cg'
   mig_beta = 0.4
   electron_maxstep = 200
   !
 /
 &IONS
   !
   ion_dynamics    = 'bfgs'
   !
 /
K_POINTS (automatic)
 1 1 1 0 0 0
ATOMIC_SPECIES  
C   12      C.pbe-rrkjus.UPF
H    1      H.pbe-rrkjus.UPF
O   16      O.pbe-rrkjus.UPF
ATOMIC_POSITIONS (angstrom)
C       -1.516356521  -0.802438472   0.011753394
H       -1.902869677  -1.348028127  -0.869133885
H       -1.902609750  -1.345424558   0.894365786
C        0.013817317  -0.863460314   0.011603149
H        0.401325700  -0.322540200  -0.871768962
H        0.401630610  -0.319953826   0.893245452
C        0.569757662  -2.291224011   0.013573978
H        0.182816777  -2.835389360  -0.867514488
H        0.183166772  -2.832833838   0.896390687
C        2.100019359  -2.347321919   0.013335847
H        2.481337446  -1.800155481   0.895259829
H        2.480934149  -1.802674574  -0.870327213
C        2.664839780  -3.770329379   0.015214511
H        2.305279547  -4.324725104  -0.868871233
H        2.305818588  -4.322217249   0.901085157
C        4.184984609  -3.782713484   0.014786126
H        4.565660115  -3.248394206   0.907819960
H        4.565117266  -3.250376448  -0.879681331
O        4.629580418  -5.154012933   0.016307984
H        5.603689973  -5.154820239   0.016679036
C       -2.088661482   0.618626179   0.009730437
H       -1.709199429   1.166848167   0.890618473
H       -1.709485076   1.164205057  -0.872927061
C       -3.618788532   0.646644962   0.009927795
H       -4.006039644   1.676982777   0.008461469
H       -4.024814639   0.133803365  -0.877083271
H       -4.024550038   0.136422074   0.898569898
