 &CONTROL
   !
   calculation = 'relax'
   restart_mode = 'from_scratch'
    pseudo_dir = ./pseudos
   outdir = ./
   prefix = MOL_019
   tprnfor = .TRUE.
   !
 /
 &SYSTEM
   !
   ecutrho = 300
   ecutwfc = 30
   !
   ibrav = 1
   celldm( 1 ) = 31.3783
   !
   nat = 24
   ntyp = 3
   !
   !
/
 &ELECTRONS
   !
   conv_thr = 5.D-9
   diagonalization = 'cg'
   mig_beta = 0.4
   electron_maxstep = 200
   !
 /
 &IONS
   !
   ion_dynamics    = 'bfgs'
   !
 /
K_POINTS (automatic)
 1 1 1 0 0 0
ATOMIC_SPECIES  
C   12      C.pbe-rrkjus.UPF
H    1      H.pbe-rrkjus.UPF
O   16      O.pbe-rrkjus.UPF
ATOMIC_POSITIONS (angstrom)
C       -2.072443441   0.632797627   0.009564888
H       -1.725924467   1.187526305   0.896419654
H       -1.726221122   1.184898226  -0.879048602
H       -3.173109291   0.654621016   0.009709264
C       -1.535583542  -0.800452294   0.011584696
H       -1.924112274  -1.341932774  -0.869429834
H       -1.923810277  -1.339335039   0.894328976
C       -0.004953831  -0.866761911   0.011423607
H        0.379408220  -0.322491777  -0.871158909
H        0.379719278  -0.319869892   0.892239559
C        0.558174464  -2.291049770   0.013440324
H        0.174674457  -2.836957322  -0.867972326
H        0.174928549  -2.834364295   0.896568004
C        2.089312049  -2.341706942   0.013295198
H        2.469819022  -1.793813543   0.895290782
H        2.469548148  -1.796467934  -0.870465790
C        2.656348321  -3.764135503   0.015330857
H        2.297051918  -4.318886331  -0.868798253
H        2.297286298  -4.316239333   0.901209749
C        4.176451990  -3.776842844   0.015155843
H        4.557331254  -3.242223056   0.907964614
H        4.557108990  -3.245384473  -0.879634578
O        4.621146325  -5.148145495   0.017570783
H        5.595240164  -5.148907496   0.016786605
