&CONTROL
  calculation='scf',
  outdir='./tmp',
  prefix='phenol',
  pseudo_dir='/home/fernanda/app/qe-6.5/pseudo',
  verbosity='low',
/

&SYSTEM
  ibrav=0,
  nat=13,
  ntyp=3,
  ecutwfc=30,
  ecutrho=240,
/

&ELECTRONS
  conv_thr=1d-10,
  mixing_beta=0.7d0,
/

ATOMIC_SPECIES
  C 12.010700d0 C.pbe-rrkjus.UPF
  H 1.007940d0  H.pbe-rrkjus.UPF
  O 15.999400d0 O.pbe-rrkjus.UPF

CELL_PARAMETERS {angstrom}
  25.000000000000d0  0.000000000000d0   0.000000000000d0
  0.000000000000d0   25.000000000000d0  0.000000000000d0
  0.000000000000d0   0.000000000000d0   50.000000000000d0

ATOMIC_POSITIONS {angstrom}
H     7.5790000000    3.9670000000     30.111 
C     8.3500000000    4.7730000000     30.236 
C     9.5520000000    4.4160000000     30.886 
H     9.6490000000    3.4700000000     31.376 
C     10.5410000000    5.4200000000     31.011 
H     11.5340000000    5.3030000000     31.466 
C     10.3270000000    6.7420000000     30.513 
H     11.2520000000    7.4710000000     30.481 
C     9.1230000000    7.0860000000     29.89 
C     8.1080000000   6.1030000000    29.764
H     7.1070000000   6.3770000000    29.231
O     8.9300000000   8.3930000000    29.374
H     9.7170000000   8.8940000000    29.035

K_POINTS [gamma}

