 &CONTROL
   !
   calculation = 'relax'
   restart_mode = 'from_scratch'
    pseudo_dir = ./pseudos
   outdir = ./
   prefix = MOL_026
   tprnfor = .TRUE.
   !
 /
 &SYSTEM
   !
   ecutrho = 300
   ecutwfc = 30
   !
   ibrav = 1
   celldm( 1 ) = 25.675
   !
   nat = 16
   ntyp = 3
   !
   !
/
 &ELECTRONS
   !
   conv_thr = 5.D-9
   diagonalization = 'cg'
   mig_beta = 0.4
   electron_maxstep = 200
   !
 /
 &IONS
   !
   ion_dynamics    = 'bfgs'
   !
 /
K_POINTS (automatic)
 1 1 1 0 0 0
ATOMIC_SPECIES  
C   12      C.pbe-rrkjus.UPF
H    1      H.pbe-rrkjus.UPF
O   16      O.pbe-rrkjus.UPF
ATOMIC_POSITIONS (angstrom)
C        0.026632917   0.271470245  -0.063212909
C        1.423984540   0.259269559  -0.028812539
C        2.113109096   1.474995524   0.005368004
C        1.416395542   2.686502580   0.030712762
C        0.013643065   2.707144128   0.000495983
C       -0.670889748   1.482597402  -0.052073231
H       -0.522454700  -0.672474417  -0.091334059
H        1.986904615  -0.675407434  -0.015557204
H        1.985707842   3.617787158   0.084437158
H       -1.763520928   1.481141559  -0.079352127
O        3.512222761   1.482796236   0.094990377
H        3.884997137   1.495257496  -0.805479803
C       -0.736958742   4.015500031   0.004641769
H       -0.182181351   4.797603987   0.543683925
H       -0.901123067   4.379732115  -1.023548498
H       -1.725344611   3.907261171   0.475047891
