 &CONTROL
   !
   calculation = 'relax'
   restart_mode = 'from_scratch'
    pseudo_dir = ./pseudos
   outdir = ./
   prefix = MOL_046
   tprnfor = .TRUE.
   !
 /
 &SYSTEM
   !
   ecutrho = 300
   ecutwfc = 30
   !
   ibrav = 1
   celldm( 1 ) = 25.8809
   !
   nat = 15
   ntyp = 2
   !
   !
/
 &ELECTRONS
   !
   conv_thr = 5.D-9
   diagonalization = 'cg'
   mig_beta = 0.4
   electron_maxstep = 200
   !
 /
 &IONS
   !
   ion_dynamics    = 'bfgs'
   !
 /
K_POINTS (automatic)
 1 1 1 0 0 0
ATOMIC_SPECIES  
C   12      C.pbe-rrkjus.UPF
H    1      H.pbe-rrkjus.UPF
ATOMIC_POSITIONS (angstrom)
C       -2.996574373  -0.360071717  -0.007464850
H       -2.663030685  -1.404523181  -0.117161718
H       -2.809285031   0.152660427  -0.963330166
H       -4.083691885  -0.373716685   0.164642864
C       -2.262321421   0.338837230   1.146511438
H       -2.590766269   1.390069514   1.220955043
H       -1.181283971   0.366140731   0.909782323
C       -2.451344953  -0.340721623   2.473127507
H       -2.207434952  -1.412706710   2.507392699
C       -2.878108244   0.254099193   3.595578739
H       -3.126104326   1.323441327   3.556274108
C       -3.020299152  -0.406613583   4.933197619
H       -2.805578839  -1.484161723   4.880262366
H       -2.330205286   0.042052121   5.669203449
H       -4.035898471  -0.279635321   5.343962131
