 &CONTROL
   !
   calculation = 'relax'
   restart_mode = 'from_scratch'
    pseudo_dir = ./pseudos
   outdir = ./
   prefix = MOL_020
   tprnfor = .TRUE.
   !
 /
 &SYSTEM
   !
   ecutrho = 300
   ecutwfc = 30
   !
   ibrav = 1
   celldm( 1 ) = 29.0605
   !
   nat = 21
   ntyp = 3
   !
   !
/
 &ELECTRONS
   !
   conv_thr = 5.D-9
   diagonalization = 'cg'
   mig_beta = 0.4
   electron_maxstep = 200
   !
 /
 &IONS
   !
   ion_dynamics    = 'bfgs'
   !
 /
K_POINTS (automatic)
 1 1 1 0 0 0
ATOMIC_SPECIES  
C   12      C.pbe-rrkjus.UPF
H    1      H.pbe-rrkjus.UPF
O   16      O.pbe-rrkjus.UPF
ATOMIC_POSITIONS (angstrom)
C       -1.542847021  -0.819643209   0.011829961
H       -1.949894414  -1.331313040  -0.875211289
H       -1.949570564  -1.328699199   0.900523797
C       -0.012885459  -0.850294159   0.011605254
H        0.367260305  -0.305559629  -0.871166160
H        0.367546604  -0.302941812   0.892635284
C        0.555043991  -2.273204218   0.013637708
H        0.167615275  -2.817920844  -0.866864233
H        0.167913368  -2.815281306   0.895897361
C        2.085413547  -2.330549500   0.013442021
H        2.468340448  -1.784800782   0.895703770
H        2.468002808  -1.787332100  -0.870527456
C        2.647482606  -3.755888087   0.015333889
H        2.286482058  -4.309832449  -0.868768675
H        2.287188604  -4.307288158   0.901312014
C        4.168075324  -3.772079010   0.014632843
H        4.550367464  -3.239415137   0.907967153
H        4.549497314  -3.240171313  -0.879522616
O        4.612254968  -5.143704614   0.014832147
H        5.586452355  -5.144004792   0.016745350
H       -1.928055711   0.211371037   0.010388607
