 &CONTROL
   !
   calculation = 'relax'
   restart_mode = 'from_scratch'
    pseudo_dir = ./pseudos
   outdir = ./
   prefix = MOL_038
   tprnfor = .TRUE.
   !
 /
 &SYSTEM
   !
   ecutrho = 300
   ecutwfc = 30
   !
   ibrav = 1
   celldm( 1 ) = 25.9822
   !
   nat = 16
   ntyp = 3
   !
   !
/
 &ELECTRONS
   !
   conv_thr = 5.D-9
   diagonalization = 'cg'
   mig_beta = 0.4
   electron_maxstep = 200
   !
 /
 &IONS
   !
   ion_dynamics    = 'bfgs'
   !
 /
K_POINTS (automatic)
 1 1 1 0 0 0
ATOMIC_SPECIES  
C   12      C.pbe-rrkjus.UPF
H    1      H.pbe-rrkjus.UPF
O   16      O.pbe-rrkjus.UPF
ATOMIC_POSITIONS (angstrom)
C       -2.235878829   1.284404327  -0.065259710
H       -2.581448241   2.330258172  -0.030584404
H       -2.579932137   0.790751044   0.857948580
C       -2.775808513   0.568078827  -1.305825167
H       -2.394351767  -0.468578380  -1.336820180
H       -2.395558203   1.060509215  -2.219145231
C       -4.306695185   0.540025254  -1.352799726
H       -4.689629615   1.576860090  -1.322146695
H       -4.689159923   0.046070942  -0.440486993
C       -4.868683254  -0.169932589  -2.585695243
H       -4.520531550  -1.217635272  -2.641691565
H       -4.514078501   0.303016603  -3.519779197
C       -6.383167362  -0.198970457  -2.645616824
H       -6.910148453   0.297903972  -1.784056065
O       -7.028310260  -0.713014511  -3.542928499
H       -1.135931517   1.296249433  -0.046592411
