 &CONTROL
   !
   calculation = 'relax'
   restart_mode = 'from_scratch'
    pseudo_dir = ./pseudos
   outdir = ./
   prefix = MOL_022
   tprnfor = .TRUE.
   !
 /
 &SYSTEM
   !
   ecutrho = 300
   ecutwfc = 30
   !
   ibrav = 1
   celldm( 1 ) = 27.4979
   !
   nat = 18
   ntyp = 3
   !
   !
/
 &ELECTRONS
   !
   conv_thr = 5.D-9
   diagonalization = 'cg'
   mig_beta = 0.4
   electron_maxstep = 200
   !
 /
 &IONS
   !
   ion_dynamics    = 'bfgs'
   !
 /
K_POINTS (automatic)
 1 1 1 0 0 0
ATOMIC_SPECIES  
C   12      C.pbe-rrkjus.UPF
H    1      H.pbe-rrkjus.UPF
O   16      O.pbe-rrkjus.UPF
ATOMIC_POSITIONS (angstrom)
C        0.003009486  -0.837976263   0.011625341
H        0.350519736  -0.287433624  -0.877899948
H        0.350816296  -0.284810130   0.899404986
C        0.538921785  -2.272260302   0.013638672
H        0.155300346  -2.815735383  -0.868658067
H        0.155611548  -2.813146668   0.897658415
C        2.070063725  -2.333157711   0.013428175
H        2.450959208  -1.786173555   0.896473517
H        2.450617178  -1.788707585  -0.871324750
C        2.635370954  -3.756471759   0.015307205
H        2.276404317  -4.310710371  -0.869649383
H        2.277010131  -4.308127660   0.902122141
C        4.155799855  -3.765977586   0.014692862
H        4.533737502  -3.231545044   0.909249319
H        4.533037026  -3.232818914  -0.880903416
O        4.604379388  -5.135703584   0.015272974
H        5.578843788  -5.133351818   0.016831588
H       -1.097633089  -0.809163993   0.011760498
