 &CONTROL
   !
   calculation = 'relax'
   restart_mode = 'from_scratch'
    pseudo_dir = ./pseudos
   outdir = ./
   prefix = MOL_037
   tprnfor = .TRUE.
   !
 /
 &SYSTEM
   !
   ecutrho = 300
   ecutwfc = 30
   !
   ibrav = 1
   celldm( 1 ) = 31.4238
   !
   nat = 25
   ntyp = 3
   !
   !
/
 &ELECTRONS
   !
   conv_thr = 5.D-9
   diagonalization = 'cg'
   mig_beta = 0.4
   electron_maxstep = 200
   !
 /
 &IONS
   !
   ion_dynamics    = 'bfgs'
   !
 /
K_POINTS (automatic)
 1 1 1 0 0 0
ATOMIC_SPECIES  
C   12      C.pbe-rrkjus.UPF
H    1      H.pbe-rrkjus.UPF
O   16      O.pbe-rrkjus.UPF
ATOMIC_POSITIONS (angstrom)
C        1.380522163   2.028118613   1.218255054
H        1.785346086   1.003271802   1.218958933
H        1.774007089   2.541995210   2.108326159
H        1.784022326   2.542109521   0.330998522
C       -0.149901753   2.012661129   1.193791479
H       -0.535583569   3.047718993   1.222884609
H       -0.534225277   1.519422735   2.104792325
C       -0.718554281   1.301115016  -0.038470828
H       -0.333697748   0.264784706  -0.068986334
H       -0.335102692   1.793810890  -0.951306712
C       -2.248976510   1.271715988  -0.086992347
H       -2.635652769   2.307322848  -0.058282079
H       -2.634302382   0.777968435   0.824329458
C       -2.809700103   0.558675415  -1.321984458
H       -2.426233826  -0.478109732  -1.352659969
H       -2.427218380   1.051537326  -2.235099049
C       -4.339997695   0.531882134  -1.367103573
H       -4.723505868   1.568356166  -1.338800502
H       -4.723359694   0.035710570  -0.456596298
C       -4.898442137  -0.178447696  -2.601282734
H       -4.548631443  -1.225089774  -2.656697938
H       -4.541050435   0.293727634  -3.534185041
C       -6.412219970  -0.208098269  -2.661972776
H       -6.936911583   0.288815389  -1.799421888
O       -7.057938637  -0.721388658  -3.558921633
