 &CONTROL
   !
   calculation = 'relax'
   restart_mode = 'from_scratch'
    pseudo_dir = ./pseudos
   outdir = ./
   prefix = MOL_009
   tprnfor = .TRUE.
   !
 /
 &SYSTEM
   !
   ecutrho = 300
   ecutwfc = 30
   !
   ibrav = 1
   celldm( 1 ) = 25.3478
   !
   nat = 22
   ntyp = 3
   !
   !
/
 &ELECTRONS
   !
   conv_thr = 5.D-9
   diagonalization = 'cg'
   mig_beta = 0.4
   electron_maxstep = 200
   !
 /
 &IONS
   !
   ion_dynamics    = 'bfgs'
   !
 /
K_POINTS (automatic)
 1 1 1 0 0 0
ATOMIC_SPECIES  
C   12      C.pbe-rrkjus.UPF
H    1      H.pbe-rrkjus.UPF
N   14      N.pbe-rrkjus.UPF
ATOMIC_POSITIONS (angstrom)
N       -1.318435620   0.658664725  -0.117168738
C       -2.750740520   0.559529890  -0.434469741
H       -2.840474054  -0.035574291  -1.354484160
H       -3.178673874   1.565603871  -0.668033164
C       -3.585639326  -0.116585079   0.653329073
H       -3.722513643   0.514991820   1.542745556
H       -4.587913695  -0.345955675   0.262107006
H       -3.116964709  -1.060307352   0.970522686
C       -1.083883625   1.545219136   1.032228703
H       -1.357307167   2.600634829   0.784991626
H       -1.767191004   1.228473770   1.833080342
C        0.343751162   1.496058213   1.577120456
H        0.387024843   2.009201541   2.549264060
H        0.666119004   0.454294118   1.724360500
H        1.071094544   1.990927965   0.917773022
C       -0.537672141   1.081978633  -1.289009648
H        0.499554769   1.227043276  -0.954714458
H       -0.888227584   2.074672333  -1.665196360
C       -0.531744421   0.068881816  -2.434064023
H       -1.492752878   0.017735945  -2.965606888
H        0.232462019   0.350308468  -3.173664665
H       -0.292212041  -0.937573570  -2.059169185
