 &CONTROL
   !
   calculation = 'relax'
   restart_mode = 'from_scratch'
    pseudo_dir = ./pseudos
   outdir = ./
   prefix = MOL_027
   tprnfor = .TRUE.
   !
 /
 &SYSTEM
   !
   ecutrho = 300
   ecutwfc = 30
   !
   ibrav = 1
   celldm( 1 ) = 27.2969
   !
   nat = 16
   ntyp = 3
   !
   !
/
 &ELECTRONS
   !
   conv_thr = 5.D-9
   diagonalization = 'cg'
   mig_beta = 0.4
   electron_maxstep = 200
   !
 /
 &IONS
   !
   ion_dynamics    = 'bfgs'
   !
 /
K_POINTS (automatic)
 1 1 1 0 0 0
ATOMIC_SPECIES  
C   12      C.pbe-rrkjus.UPF
H    1      H.pbe-rrkjus.UPF
O   16      O.pbe-rrkjus.UPF
ATOMIC_POSITIONS (angstrom)
C        0.026343077   0.280608059  -0.060552901
C        1.423410895   0.271579422  -0.019663388
C        2.124732050   1.480208260   0.014926469
C        1.425855344   2.690619234   0.033825304
C        0.028753014   2.686185295  -0.007369301
C       -0.695914418   1.484713420  -0.060996347
H       -0.513883924  -0.669914628  -0.096811333
H        1.981290100  -0.667178610  -0.015911571
H        1.985504457   3.627248182   0.079165546
O        3.524677342   1.476787289   0.096044454
H        3.890515193   1.496847119  -0.807415449
H       -0.509618888   3.638435896  -0.001443402
C       -2.203483355   1.487147317  -0.103637339
H       -2.636082139   1.465109619   0.910535156
H       -2.588721997   2.388668011  -0.602049321
H       -2.590459570   0.609320425  -0.641447784
