 &CONTROL
   !
   calculation = 'relax'
   restart_mode = 'from_scratch'
    pseudo_dir = ./pseudos
   outdir = ./
   prefix = MOL_042
   tprnfor = .TRUE.
   !
 /
 &SYSTEM
   !
   ecutrho = 300
   ecutwfc = 30
   !
   ibrav = 1
   celldm( 1 ) = 27.9973
   !
   nat = 18
   ntyp = 2
   !
   !
/
 &ELECTRONS
   !
   conv_thr = 5.D-9
   diagonalization = 'cg'
   mig_beta = 0.4
   electron_maxstep = 200
   !
 /
 &IONS
   !
   ion_dynamics    = 'bfgs'
   !
 /
K_POINTS (automatic)
 1 1 1 0 0 0
ATOMIC_SPECIES  
C   12      C.pbe-rrkjus.UPF
H    1      H.pbe-rrkjus.UPF
ATOMIC_POSITIONS (angstrom)
C       -3.552132912   1.433011034  -0.287515451
H       -3.087396339   0.645253758  -0.887958422
H       -4.640619968   1.412960360  -0.203289612
C       -2.819597167   2.374467537   0.317275064
H       -3.332771915   3.137274062   0.916887838
C       -1.325247637   2.493712713   0.250033638
H       -0.922025303   1.718536330  -0.423158635
H       -0.899860168   2.287652392   1.251067678
C       -0.831900232   3.882716166  -0.189806880
H       -1.249265738   4.643784960   0.493913109
H       -1.234385582   4.121314864  -1.190470080
C        0.697413849   3.982257097  -0.199090619
H        1.082488213   3.619976179   0.771376279
H        1.097749468   3.287204173  -0.958608680
C        1.226074069   5.394398975  -0.459551220
H        0.898930478   6.093092401   0.327490484
H        2.326230526   5.409687010  -0.480832595
H        0.870298199   5.789670981  -1.424394306
