 &CONTROL
   !
   calculation = 'relax'
   restart_mode = 'from_scratch'
    pseudo_dir = ./pseudos
   outdir = ./
   prefix = MOL_029
   tprnfor = .TRUE.
   !
 /
 &SYSTEM
   !
   ecutrho = 300
   ecutwfc = 30
   !
   ibrav = 1
   celldm( 1 ) = 22.7839
   !
   nat = 16
   ntyp = 3
   !
   !
/
 &ELECTRONS
   !
   conv_thr = 5.D-9
   diagonalization = 'cg'
   mig_beta = 0.4
   electron_maxstep = 200
   !
 /
 &IONS
   !
   ion_dynamics    = 'bfgs'
   !
 /
K_POINTS (automatic)
 1 1 1 0 0 0
ATOMIC_SPECIES  
C   12      C.pbe-rrkjus.UPF
H    1      H.pbe-rrkjus.UPF
O   16      O.pbe-rrkjus.UPF
ATOMIC_POSITIONS (angstrom)
C        3.638664780   0.284970178   0.208611837
C        5.051272416   0.248959547  -0.405922389
C        5.637150615   1.620600051  -0.067780489
C        4.452426777   2.575096395  -0.291279674
C        3.185843996   1.768435079   0.104203834
H        2.946238005  -0.404773921  -0.296344728
H        3.692563643  -0.020551583   1.263776780
H        5.002035045   0.149697166  -1.503462729
H        5.676772913  -0.569578898  -0.020627210
H        6.510891604   1.874766045  -0.697056163
H        4.565041369   3.509056742   0.283283362
H        4.426590975   2.862883690  -1.355454717
H        2.778433139   2.119047096   1.062613260
H        2.389866812   1.898434264  -0.643986510
O        6.043217020   1.573179858   1.322179466
H        6.262539622   2.482983601   1.595779222
