 &control
    calculation='scf'
    restart_mode='from_scratch',
    prefix='C6H6'
    pseudo_dir = '/home/fcb0039/app/qe-6.5/pseudo/'
    outdir='./tmp'
 /
 &system
    ibrav = 6,
    celldm(1) = 32.0,
    celldm(3) = 0.83,
    nat = 12,
    ntyp = 2,
    ecutwfc = 25,
    ecutrho = 250
 /
 &electrons
    conv_thr =  1.0d-10
 /
ATOMIC_SPECIES
  C 12.010700d0 C.pbe-rrkjus.UPF
  H 1.007940d0  H.pbe-rrkjus.UPF
  O 15.999400d0 O.pbe-rrkjus.UPF
ATOMIC_POSITIONS {angstrom}
C   5.633200899   6.320861303   5.000000000
C   6.847051545   8.422621957   5.000000000
C   8.060751351   7.721904557   5.000000000
C   8.060707879   6.320636665   5.000000000
C   6.846898786   5.620067381   5.000000000
C   5.633279551   7.722134449   5.000000000
H   6.847254360   9.512254789   5.000000000
H   9.004364510   8.266639340   5.000000000
H   9.004297495   5.775895755   5.000000000
H   6.846845929   4.530522778   5.000000000
H   4.689556006   5.776237709   5.000000000
H   4.689791688   8.267023318   5.000000000
K_POINTS {gamma}
